\Problem name: compact

Minimize
OBJROW: C
Subject To
ord(0,1):  - x(0,0) + x(0,3) >= 10
ord(0,2):  x(0,2) - x(0,3) >= 1
ord(0,3):  x(0,1) - x(0,2) >= 6
ord(1,1):  - x(1,0) + x(1,3) >= 1
ord(1,2):  x(1,1) - x(1,3) >= 7
ord(1,3):  - x(1,1) + x(1,2) >= 5
ord(2,1):  x(2,2) - x(2,3) >= 9
ord(2,2):  x(2,1) - x(2,2) >= 3
ord(2,3):  x(2,0) - x(2,1) >= 7
ord(3,1):  - x(3,1) + x(3,3) >= 7
ord(3,2):  x(3,0) - x(3,3) >= 3
ord(3,3):  - x(3,0) + x(3,2) >= 9
triangle2(0,1,0):  y(0,1,0) + y(1,0,0) = 1
triangle2(0,1,1):  y(0,1,1) + y(1,0,1) = 1
triangle2(0,1,2):  y(0,1,2) + y(1,0,2) = 1
triangle2(0,1,3):  y(0,1,3) + y(1,0,3) = 1
triangle2(0,2,0):  y(0,2,0) + y(2,0,0) = 1
triangle2(0,2,1):  y(0,2,1) + y(2,0,1) = 1
triangle2(0,2,2):  y(0,2,2) + y(2,0,2) = 1
triangle2(0,2,3):  y(0,2,3) + y(2,0,3) = 1
triangle2(0,3,0):  y(0,3,0) + y(3,0,0) = 1
triangle2(0,3,1):  y(0,3,1) + y(3,0,1) = 1
triangle2(0,3,2):  y(0,3,2) + y(3,0,2) = 1
triangle2(0,3,3):  y(0,3,3) + y(3,0,3) = 1
triangle2(1,2,0):  y(1,2,0) + y(2,1,0) = 1
triangle2(1,2,1):  y(1,2,1) + y(2,1,1) = 1
triangle2(1,2,2):  y(1,2,2) + y(2,1,2) = 1
triangle2(1,2,3):  y(1,2,3) + y(2,1,3) = 1
triangle2(1,3,0):  y(1,3,0) + y(3,1,0) = 1
triangle2(1,3,1):  y(1,3,1) + y(3,1,1) = 1
triangle2(1,3,2):  y(1,3,2) + y(3,1,2) = 1
triangle2(1,3,3):  y(1,3,3) + y(3,1,3) = 1
triangle2(2,3,0):  y(2,3,0) + y(3,2,0) = 1
triangle2(2,3,1):  y(2,3,1) + y(3,2,1) = 1
triangle2(2,3,2):  y(2,3,2) + y(3,2,2) = 1
triangle2(2,3,3):  y(2,3,3) + y(3,2,3) = 1
MCLinV(0,1,0):  x(0,0) - v(0,1,0) - x(1,0) = 1
MCLinV(1,0,0):  - x(0,0) - v(1,0,0) + x(1,0) = 10
MCLin1(0,1,0):  u(0,1,0) >= 0
MCLin2(0,1,0):  -74 y(1,0,0) - u(0,1,0) <= 0
MCLin3(0,1,0):  69 y(1,0,0) + v(0,1,0) - u(0,1,0) <= 69
MCLin4(0,1,0):  69 y(1,0,0) - u(0,1,0) >= 0
MCLin5(0,1,0):  -74 y(1,0,0) + v(0,1,0) - u(0,1,0) >= -74
MCLin6(1,0,0):  u(1,0,0) >= 0
MCLin7(1,0,0):  -80 y(0,1,0) - u(1,0,0) <= 0
MCLin8(1,0,0):  63 y(0,1,0) + v(1,0,0) - u(1,0,0) <= 63
MCLin9(1,0,0):  63 y(0,1,0) - u(1,0,0) >= 0
MCLin10(1,0,0):  -80 y(0,1,0) + v(1,0,0) - u(1,0,0) >= -80
MCLinV(0,1,1):  x(0,1) - v(0,1,1) - x(1,1) = 5
MCLinV(1,0,1):  - x(0,1) - v(1,0,1) + x(1,1) = 7
MCLin1(0,1,1):  u(0,1,1) >= 0
MCLin2(0,1,1):  -69 y(1,0,1) - u(0,1,1) <= 0
MCLin3(0,1,1):  74 y(1,0,1) + v(0,1,1) - u(0,1,1) <= 74
MCLin4(0,1,1):  74 y(1,0,1) - u(0,1,1) >= 0
MCLin5(0,1,1):  -69 y(1,0,1) + v(0,1,1) - u(0,1,1) >= -69
MCLin6(1,0,1):  u(1,0,1) >= 0
MCLin7(1,0,1):  -86 y(0,1,1) - u(1,0,1) <= 0
MCLin8(1,0,1):  57 y(0,1,1) + v(1,0,1) - u(1,0,1) <= 57
MCLin9(1,0,1):  57 y(0,1,1) - u(1,0,1) >= 0
MCLin10(1,0,1):  -86 y(0,1,1) + v(1,0,1) - u(1,0,1) >= -86
MCLinV(0,1,2):  x(0,2) - v(0,1,2) - x(1,2) = 8
MCLinV(1,0,2):  - x(0,2) - v(1,0,2) + x(1,2) = 6
MCLin1(0,1,2):  u(0,1,2) >= 0
MCLin2(0,1,2):  -83 y(1,0,2) - u(0,1,2) <= 0
MCLin3(0,1,2):  60 y(1,0,2) + v(0,1,2) - u(0,1,2) <= 60
MCLin4(0,1,2):  60 y(1,0,2) - u(0,1,2) >= 0
MCLin5(0,1,2):  -83 y(1,0,2) + v(0,1,2) - u(0,1,2) >= -83
MCLin6(1,0,2):  u(1,0,2) >= 0
MCLin7(1,0,2):  -74 y(0,1,2) - u(1,0,2) <= 0
MCLin8(1,0,2):  69 y(0,1,2) + v(1,0,2) - u(1,0,2) <= 69
MCLin9(1,0,2):  69 y(0,1,2) - u(1,0,2) >= 0
MCLin10(1,0,2):  -74 y(0,1,2) + v(1,0,2) - u(1,0,2) >= -74
MCLinV(0,1,3):  x(0,3) - v(0,1,3) - x(1,3) = 7
MCLinV(1,0,3):  - x(0,3) - v(1,0,3) + x(1,3) = 1
MCLin1(0,1,3):  u(0,1,3) >= 0
MCLin2(0,1,3):  -71 y(1,0,3) - u(0,1,3) <= 0
MCLin3(0,1,3):  72 y(1,0,3) + v(0,1,3) - u(0,1,3) <= 72
MCLin4(0,1,3):  72 y(1,0,3) - u(0,1,3) >= 0
MCLin5(0,1,3):  -71 y(1,0,3) + v(0,1,3) - u(0,1,3) >= -71
MCLin6(1,0,3):  u(1,0,3) >= 0
MCLin7(1,0,3):  -80 y(0,1,3) - u(1,0,3) <= 0
MCLin8(1,0,3):  63 y(0,1,3) + v(1,0,3) - u(1,0,3) <= 63
MCLin9(1,0,3):  63 y(0,1,3) - u(1,0,3) >= 0
MCLin10(1,0,3):  -80 y(0,1,3) + v(1,0,3) - u(1,0,3) >= -80
MCLinV(0,2,0):  x(0,0) - v(0,2,0) - x(2,0) = 1
MCLinV(2,0,0):  - x(0,0) - v(2,0,0) + x(2,0) = 10
MCLin1(0,2,0):  u(0,2,0) >= 0
MCLin2(0,2,0):  -94 y(2,0,0) - u(0,2,0) <= 0
MCLin3(0,2,0):  50 y(2,0,0) + v(0,2,0) - u(0,2,0) <= 50
MCLin4(0,2,0):  50 y(2,0,0) - u(0,2,0) >= 0
MCLin5(0,2,0):  -94 y(2,0,0) + v(0,2,0) - u(0,2,0) >= -94
MCLin6(2,0,0):  u(2,0,0) >= 0
MCLin7(2,0,0):  -61 y(0,2,0) - u(2,0,0) <= 0
MCLin8(2,0,0):  83 y(0,2,0) + v(2,0,0) - u(2,0,0) <= 83
MCLin9(2,0,0):  83 y(0,2,0) - u(2,0,0) >= 0
MCLin10(2,0,0):  -61 y(0,2,0) + v(2,0,0) - u(2,0,0) >= -61
MCLinV(0,2,1):  x(0,1) - v(0,2,1) - x(2,1) = 7
MCLinV(2,0,1):  - x(0,1) - v(2,0,1) + x(2,1) = 7
MCLin1(0,2,1):  u(0,2,1) >= 0
MCLin2(0,2,1):  -76 y(2,0,1) - u(0,2,1) <= 0
MCLin3(0,2,1):  68 y(2,0,1) + v(0,2,1) - u(0,2,1) <= 68
MCLin4(0,2,1):  68 y(2,0,1) - u(0,2,1) >= 0
MCLin5(0,2,1):  -76 y(2,0,1) + v(0,2,1) - u(0,2,1) >= -76
MCLin6(2,0,1):  u(2,0,1) >= 0
MCLin7(2,0,1):  -82 y(0,2,1) - u(2,0,1) <= 0
MCLin8(2,0,1):  62 y(0,2,1) + v(2,0,1) - u(2,0,1) <= 62
MCLin9(2,0,1):  62 y(0,2,1) - u(2,0,1) >= 0
MCLin10(2,0,1):  -82 y(0,2,1) + v(2,0,1) - u(2,0,1) >= -82
MCLinV(0,2,2):  x(0,2) - v(0,2,2) - x(2,2) = 3
MCLinV(2,0,2):  - x(0,2) - v(2,0,2) + x(2,2) = 6
MCLin1(0,2,2):  u(0,2,2) >= 0
MCLin2(0,2,2):  -75 y(2,0,2) - u(0,2,2) <= 0
MCLin3(0,2,2):  69 y(2,0,2) + v(0,2,2) - u(0,2,2) <= 69
MCLin4(0,2,2):  69 y(2,0,2) - u(0,2,2) >= 0
MCLin5(0,2,2):  -75 y(2,0,2) + v(0,2,2) - u(0,2,2) >= -75
MCLin6(2,0,2):  u(2,0,2) >= 0
MCLin7(2,0,2):  -78 y(0,2,2) - u(2,0,2) <= 0
MCLin8(2,0,2):  66 y(0,2,2) + v(2,0,2) - u(2,0,2) <= 66
MCLin9(2,0,2):  66 y(0,2,2) - u(2,0,2) >= 0
MCLin10(2,0,2):  -78 y(0,2,2) + v(2,0,2) - u(2,0,2) >= -78
MCLinV(0,2,3):  x(0,3) - v(0,2,3) - x(2,3) = 9
MCLinV(2,0,3):  - x(0,3) - v(2,0,3) + x(2,3) = 1
MCLin1(0,2,3):  u(0,2,3) >= 0
MCLin2(0,2,3):  -73 y(2,0,3) - u(0,2,3) <= 0
MCLin3(0,2,3):  71 y(2,0,3) + v(0,2,3) - u(0,2,3) <= 71
MCLin4(0,2,3):  71 y(2,0,3) - u(0,2,3) >= 0
MCLin5(0,2,3):  -73 y(2,0,3) + v(0,2,3) - u(0,2,3) >= -73
MCLin6(2,0,3):  u(2,0,3) >= 0
MCLin7(2,0,3):  -81 y(0,2,3) - u(2,0,3) <= 0
MCLin8(2,0,3):  63 y(0,2,3) + v(2,0,3) - u(2,0,3) <= 63
MCLin9(2,0,3):  63 y(0,2,3) - u(2,0,3) >= 0
MCLin10(2,0,3):  -81 y(0,2,3) + v(2,0,3) - u(2,0,3) >= -81
MCLinV(0,3,0):  x(0,0) - v(0,3,0) - x(3,0) = 9
MCLinV(3,0,0):  - x(0,0) - v(3,0,0) + x(3,0) = 10
MCLin1(0,3,0):  u(0,3,0) >= 0
MCLin2(0,3,0):  -84 y(3,0,0) - u(0,3,0) <= 0
MCLin3(0,3,0):  51 y(3,0,0) + v(0,3,0) - u(0,3,0) <= 51
MCLin4(0,3,0):  51 y(3,0,0) - u(0,3,0) >= 0
MCLin5(0,3,0):  -84 y(3,0,0) + v(0,3,0) - u(0,3,0) >= -84
MCLin6(3,0,0):  u(3,0,0) >= 0
MCLin7(3,0,0):  -70 y(0,3,0) - u(3,0,0) <= 0
MCLin8(3,0,0):  65 y(0,3,0) + v(3,0,0) - u(3,0,0) <= 65
MCLin9(3,0,0):  65 y(0,3,0) - u(3,0,0) >= 0
MCLin10(3,0,0):  -70 y(0,3,0) + v(3,0,0) - u(3,0,0) >= -70
MCLinV(0,3,1):  x(0,1) - v(0,3,1) - x(3,1) = 7
MCLinV(3,0,1):  - x(0,1) - v(3,0,1) + x(3,1) = 7
MCLin1(0,3,1):  u(0,3,1) >= 0
MCLin2(0,3,1):  -55 y(3,0,1) - u(0,3,1) <= 0
MCLin3(0,3,1):  80 y(3,0,1) + v(0,3,1) - u(0,3,1) <= 80
MCLin4(0,3,1):  80 y(3,0,1) - u(0,3,1) >= 0
MCLin5(0,3,1):  -55 y(3,0,1) + v(0,3,1) - u(0,3,1) >= -55
MCLin6(3,0,1):  u(3,0,1) >= 0
MCLin7(3,0,1):  -94 y(0,3,1) - u(3,0,1) <= 0
MCLin8(3,0,1):  41 y(0,3,1) + v(3,0,1) - u(3,0,1) <= 41
MCLin9(3,0,1):  41 y(0,3,1) - u(3,0,1) >= 0
MCLin10(3,0,1):  -94 y(0,3,1) + v(3,0,1) - u(3,0,1) >= -94
MCLinV(0,3,2):  x(0,2) - v(0,3,2) - x(3,2) = 10
MCLinV(3,0,2):  - x(0,2) - v(3,0,2) + x(3,2) = 6
MCLin1(0,3,2):  u(0,3,2) >= 0
MCLin2(0,3,2):  -83 y(3,0,2) - u(0,3,2) <= 0
MCLin3(0,3,2):  52 y(3,0,2) + v(0,3,2) - u(0,3,2) <= 52
MCLin4(0,3,2):  52 y(3,0,2) - u(0,3,2) >= 0
MCLin5(0,3,2):  -83 y(3,0,2) + v(0,3,2) - u(0,3,2) >= -83
MCLin6(3,0,2):  u(3,0,2) >= 0
MCLin7(3,0,2):  -68 y(0,3,2) - u(3,0,2) <= 0
MCLin8(3,0,2):  67 y(0,3,2) + v(3,0,2) - u(3,0,2) <= 67
MCLin9(3,0,2):  67 y(0,3,2) - u(3,0,2) >= 0
MCLin10(3,0,2):  -68 y(0,3,2) + v(3,0,2) - u(3,0,2) >= -68
MCLinV(0,3,3):  x(0,3) - v(0,3,3) - x(3,3) = 3
MCLinV(3,0,3):  - x(0,3) - v(3,0,3) + x(3,3) = 1
MCLin1(0,3,3):  u(0,3,3) >= 0
MCLin2(0,3,3):  -65 y(3,0,3) - u(0,3,3) <= 0
MCLin3(0,3,3):  70 y(3,0,3) + v(0,3,3) - u(0,3,3) <= 70
MCLin4(0,3,3):  70 y(3,0,3) - u(0,3,3) >= 0
MCLin5(0,3,3):  -65 y(3,0,3) + v(0,3,3) - u(0,3,3) >= -65
MCLin6(3,0,3):  u(3,0,3) >= 0
MCLin7(3,0,3):  -74 y(0,3,3) - u(3,0,3) <= 0
MCLin8(3,0,3):  61 y(0,3,3) + v(3,0,3) - u(3,0,3) <= 61
MCLin9(3,0,3):  61 y(0,3,3) - u(3,0,3) >= 0
MCLin10(3,0,3):  -74 y(0,3,3) + v(3,0,3) - u(3,0,3) >= -74
MCLinV(1,2,0):  x(1,0) - v(1,2,0) - x(2,0) = 1
MCLinV(2,1,0):  - x(1,0) - v(2,1,0) + x(2,0) = 1
MCLin1(1,2,0):  u(1,2,0) >= 0
MCLin2(1,2,0):  -94 y(2,1,0) - u(1,2,0) <= 0
MCLin3(1,2,0):  53 y(2,1,0) + v(1,2,0) - u(1,2,0) <= 53
MCLin4(1,2,0):  53 y(2,1,0) - u(1,2,0) >= 0
MCLin5(1,2,0):  -94 y(2,1,0) + v(1,2,0) - u(1,2,0) >= -94
MCLin6(2,1,0):  u(2,1,0) >= 0
MCLin7(2,1,0):  -55 y(1,2,0) - u(2,1,0) <= 0
MCLin8(2,1,0):  92 y(1,2,0) + v(2,1,0) - u(2,1,0) <= 92
MCLin9(2,1,0):  92 y(1,2,0) - u(2,1,0) >= 0
MCLin10(2,1,0):  -55 y(1,2,0) + v(2,1,0) - u(2,1,0) >= -55
MCLinV(1,2,1):  x(1,1) - v(1,2,1) - x(2,1) = 7
MCLinV(2,1,1):  - x(1,1) - v(2,1,1) + x(2,1) = 5
MCLin1(1,2,1):  u(1,2,1) >= 0
MCLin2(1,2,1):  -85 y(2,1,1) - u(1,2,1) <= 0
MCLin3(1,2,1):  62 y(2,1,1) + v(1,2,1) - u(1,2,1) <= 62
MCLin4(1,2,1):  62 y(2,1,1) - u(1,2,1) >= 0
MCLin5(1,2,1):  -85 y(2,1,1) + v(1,2,1) - u(1,2,1) >= -85
MCLin6(2,1,1):  u(2,1,1) >= 0
MCLin7(2,1,1):  -74 y(1,2,1) - u(2,1,1) <= 0
MCLin8(2,1,1):  73 y(1,2,1) + v(2,1,1) - u(2,1,1) <= 73
MCLin9(2,1,1):  73 y(1,2,1) - u(2,1,1) >= 0
MCLin10(2,1,1):  -74 y(1,2,1) + v(2,1,1) - u(2,1,1) >= -74
MCLinV(1,2,2):  x(1,2) - v(1,2,2) - x(2,2) = 3
MCLinV(2,1,2):  - x(1,2) - v(2,1,2) + x(2,2) = 8
MCLin1(1,2,2):  u(1,2,2) >= 0
MCLin2(1,2,2):  -73 y(2,1,2) - u(1,2,2) <= 0
MCLin3(1,2,2):  74 y(2,1,2) + v(1,2,2) - u(1,2,2) <= 74
MCLin4(1,2,2):  74 y(2,1,2) - u(1,2,2) >= 0
MCLin5(1,2,2):  -73 y(2,1,2) + v(1,2,2) - u(1,2,2) >= -73
MCLin6(2,1,2):  u(2,1,2) >= 0
MCLin7(2,1,2):  -85 y(1,2,2) - u(2,1,2) <= 0
MCLin8(2,1,2):  62 y(1,2,2) + v(2,1,2) - u(2,1,2) <= 62
MCLin9(2,1,2):  62 y(1,2,2) - u(2,1,2) >= 0
MCLin10(2,1,2):  -85 y(1,2,2) + v(2,1,2) - u(2,1,2) >= -85
MCLinV(1,2,3):  x(1,3) - v(1,2,3) - x(2,3) = 9
MCLinV(2,1,3):  - x(1,3) - v(2,1,3) + x(2,3) = 7
MCLin1(1,2,3):  u(1,2,3) >= 0
MCLin2(1,2,3):  -82 y(2,1,3) - u(1,2,3) <= 0
MCLin3(1,2,3):  65 y(2,1,3) + v(1,2,3) - u(1,2,3) <= 65
MCLin4(1,2,3):  65 y(2,1,3) - u(1,2,3) >= 0
MCLin5(1,2,3):  -82 y(2,1,3) + v(1,2,3) - u(1,2,3) >= -82
MCLin6(2,1,3):  u(2,1,3) >= 0
MCLin7(2,1,3):  -81 y(1,2,3) - u(2,1,3) <= 0
MCLin8(2,1,3):  66 y(1,2,3) + v(2,1,3) - u(2,1,3) <= 66
MCLin9(2,1,3):  66 y(1,2,3) - u(2,1,3) >= 0
MCLin10(2,1,3):  -81 y(1,2,3) + v(2,1,3) - u(2,1,3) >= -81
MCLinV(1,3,0):  x(1,0) - v(1,3,0) - x(3,0) = 9
MCLinV(3,1,0):  - x(1,0) - v(3,1,0) + x(3,0) = 1
MCLin1(1,3,0):  u(1,3,0) >= 0
MCLin2(1,3,0):  -84 y(3,1,0) - u(1,3,0) <= 0
MCLin3(1,3,0):  54 y(3,1,0) + v(1,3,0) - u(1,3,0) <= 54
MCLin4(1,3,0):  54 y(3,1,0) - u(1,3,0) >= 0
MCLin5(1,3,0):  -84 y(3,1,0) + v(1,3,0) - u(1,3,0) >= -84
MCLin6(3,1,0):  u(3,1,0) >= 0
MCLin7(3,1,0):  -64 y(1,3,0) - u(3,1,0) <= 0
MCLin8(3,1,0):  74 y(1,3,0) + v(3,1,0) - u(3,1,0) <= 74
MCLin9(3,1,0):  74 y(1,3,0) - u(3,1,0) >= 0
MCLin10(3,1,0):  -64 y(1,3,0) + v(3,1,0) - u(3,1,0) >= -64
MCLinV(1,3,1):  x(1,1) - v(1,3,1) - x(3,1) = 7
MCLinV(3,1,1):  - x(1,1) - v(3,1,1) + x(3,1) = 5
MCLin1(1,3,1):  u(1,3,1) >= 0
MCLin2(1,3,1):  -64 y(3,1,1) - u(1,3,1) <= 0
MCLin3(1,3,1):  74 y(3,1,1) + v(1,3,1) - u(1,3,1) <= 74
MCLin4(1,3,1):  74 y(3,1,1) - u(1,3,1) >= 0
MCLin5(1,3,1):  -64 y(3,1,1) + v(1,3,1) - u(1,3,1) >= -64
MCLin6(3,1,1):  u(3,1,1) >= 0
MCLin7(3,1,1):  -86 y(1,3,1) - u(3,1,1) <= 0
MCLin8(3,1,1):  52 y(1,3,1) + v(3,1,1) - u(3,1,1) <= 52
MCLin9(3,1,1):  52 y(1,3,1) - u(3,1,1) >= 0
MCLin10(3,1,1):  -86 y(1,3,1) + v(3,1,1) - u(3,1,1) >= -86
MCLinV(1,3,2):  x(1,2) - v(1,3,2) - x(3,2) = 10
MCLinV(3,1,2):  - x(1,2) - v(3,1,2) + x(3,2) = 8
MCLin1(1,3,2):  u(1,3,2) >= 0
MCLin2(1,3,2):  -81 y(3,1,2) - u(1,3,2) <= 0
MCLin3(1,3,2):  57 y(3,1,2) + v(1,3,2) - u(1,3,2) <= 57
MCLin4(1,3,2):  57 y(3,1,2) - u(1,3,2) >= 0
MCLin5(1,3,2):  -81 y(3,1,2) + v(1,3,2) - u(1,3,2) >= -81
MCLin6(3,1,2):  u(3,1,2) >= 0
MCLin7(3,1,2):  -75 y(1,3,2) - u(3,1,2) <= 0
MCLin8(3,1,2):  63 y(1,3,2) + v(3,1,2) - u(3,1,2) <= 63
MCLin9(3,1,2):  63 y(1,3,2) - u(3,1,2) >= 0
MCLin10(3,1,2):  -75 y(1,3,2) + v(3,1,2) - u(3,1,2) >= -75
MCLinV(1,3,3):  x(1,3) - v(1,3,3) - x(3,3) = 3
MCLinV(3,1,3):  - x(1,3) - v(3,1,3) + x(3,3) = 7
MCLin1(1,3,3):  u(1,3,3) >= 0
MCLin2(1,3,3):  -74 y(3,1,3) - u(1,3,3) <= 0
MCLin3(1,3,3):  64 y(3,1,3) + v(1,3,3) - u(1,3,3) <= 64
MCLin4(1,3,3):  64 y(3,1,3) - u(1,3,3) >= 0
MCLin5(1,3,3):  -74 y(3,1,3) + v(1,3,3) - u(1,3,3) >= -74
MCLin6(3,1,3):  u(3,1,3) >= 0
MCLin7(3,1,3):  -74 y(1,3,3) - u(3,1,3) <= 0
MCLin8(3,1,3):  64 y(1,3,3) + v(3,1,3) - u(3,1,3) <= 64
MCLin9(3,1,3):  64 y(1,3,3) - u(3,1,3) >= 0
MCLin10(3,1,3):  -74 y(1,3,3) + v(3,1,3) - u(3,1,3) >= -74
MCLinV(2,3,0):  x(2,0) - v(2,3,0) - x(3,0) = 9
MCLinV(3,2,0):  - x(2,0) - v(3,2,0) + x(3,0) = 1
MCLin1(2,3,0):  u(2,3,0) >= 0
MCLin2(2,3,0):  -65 y(3,2,0) - u(2,3,0) <= 0
MCLin3(2,3,0):  74 y(3,2,0) + v(2,3,0) - u(2,3,0) <= 74
MCLin4(2,3,0):  74 y(3,2,0) - u(2,3,0) >= 0
MCLin5(2,3,0):  -65 y(3,2,0) + v(2,3,0) - u(2,3,0) >= -65
MCLin6(3,2,0):  u(3,2,0) >= 0
MCLin7(3,2,0):  -84 y(2,3,0) - u(3,2,0) <= 0
MCLin8(3,2,0):  55 y(2,3,0) + v(3,2,0) - u(3,2,0) <= 55
MCLin9(3,2,0):  55 y(2,3,0) - u(3,2,0) >= 0
MCLin10(3,2,0):  -84 y(2,3,0) + v(3,2,0) - u(3,2,0) >= -84
MCLinV(2,3,1):  x(2,1) - v(2,3,1) - x(3,1) = 7
MCLinV(3,2,1):  - x(2,1) - v(3,2,1) + x(3,1) = 7
MCLin1(2,3,1):  u(2,3,1) >= 0
MCLin2(2,3,1):  -60 y(3,2,1) - u(2,3,1) <= 0
MCLin3(2,3,1):  79 y(3,2,1) + v(2,3,1) - u(2,3,1) <= 79
MCLin4(2,3,1):  79 y(3,2,1) - u(2,3,1) >= 0
MCLin5(2,3,1):  -60 y(3,2,1) + v(2,3,1) - u(2,3,1) >= -60
MCLin6(3,2,1):  u(3,2,1) >= 0
MCLin7(3,2,1):  -93 y(2,3,1) - u(3,2,1) <= 0
MCLin8(3,2,1):  46 y(2,3,1) + v(3,2,1) - u(3,2,1) <= 46
MCLin9(3,2,1):  46 y(2,3,1) - u(3,2,1) >= 0
MCLin10(3,2,1):  -93 y(2,3,1) + v(3,2,1) - u(3,2,1) >= -93
MCLinV(2,3,2):  x(2,2) - v(2,3,2) - x(3,2) = 10
MCLinV(3,2,2):  - x(2,2) - v(3,2,2) + x(3,2) = 3
MCLin1(2,3,2):  u(2,3,2) >= 0
MCLin2(2,3,2):  -85 y(3,2,2) - u(2,3,2) <= 0
MCLin3(2,3,2):  54 y(3,2,2) + v(2,3,2) - u(2,3,2) <= 54
MCLin4(2,3,2):  54 y(3,2,2) - u(2,3,2) >= 0
MCLin5(2,3,2):  -85 y(3,2,2) + v(2,3,2) - u(2,3,2) >= -85
MCLin6(3,2,2):  u(3,2,2) >= 0
MCLin7(3,2,2):  -67 y(2,3,2) - u(3,2,2) <= 0
MCLin8(3,2,2):  72 y(2,3,2) + v(3,2,2) - u(3,2,2) <= 72
MCLin9(3,2,2):  72 y(2,3,2) - u(3,2,2) >= 0
MCLin10(3,2,2):  -67 y(2,3,2) + v(3,2,2) - u(3,2,2) >= -67
MCLinV(2,3,3):  x(2,3) - v(2,3,3) - x(3,3) = 3
MCLinV(3,2,3):  - x(2,3) - v(3,2,3) + x(3,3) = 9
MCLin1(2,3,3):  u(2,3,3) >= 0
MCLin2(2,3,3):  -75 y(3,2,3) - u(2,3,3) <= 0
MCLin3(2,3,3):  64 y(3,2,3) + v(2,3,3) - u(2,3,3) <= 64
MCLin4(2,3,3):  64 y(3,2,3) - u(2,3,3) >= 0
MCLin5(2,3,3):  -75 y(3,2,3) + v(2,3,3) - u(2,3,3) >= -75
MCLin6(3,2,3):  u(3,2,3) >= 0
MCLin7(3,2,3):  -76 y(2,3,3) - u(3,2,3) <= 0
MCLin8(3,2,3):  63 y(2,3,3) + v(3,2,3) - u(3,2,3) <= 63
MCLin9(3,2,3):  63 y(2,3,3) - u(3,2,3) >= 0
MCLin10(3,2,3):  -76 y(2,3,3) + v(3,2,3) - u(3,2,3) >= -76
makespan(0):  C - x(0,1) >= 7
makespan(1):  C - x(1,2) >= 8
makespan(2):  C - x(2,0) >= 1
makespan(3):  C - x(3,2) >= 10
cut_clique_1(0123,0):  x(0,0) + 0.10000 x(1,0) >= 1
cut_clique_1(013,0):  x(0,0) + 0.10000 x(1,0) >= 1
cut_clique_1(012,0):  x(0,0) + 0.10000 x(1,0) >= 1
cut_clique_1(0123,1):  0.00662 x(1,1) + 0.07285 x(2,1) >= 1
cut_clique_1(123,1):  0.00662 x(1,1) + 0.07285 x(2,1) >= 1
cut_clique_1(012,1):  0.00662 x(1,1) + 0.07285 x(2,1) >= 1
cut_clique_1(0123,2):  0.00994 x(0,2) + 0.01468 x(1,2) + 0.00183 x(2,2) + 0.02307 x(3,2) >= 1
cut_clique_1(012,2):  0.02175 x(0,2) + 0.03915 x(1,2) + 0.00381 x(2,2) >= 1
cut_clique_1(013,2):  0.00815 x(0,2) + 0.01359 x(1,2) + 0.02717 x(3,2) >= 1
cut_clique_1(023,2):  0.07619 x(0,2) + 0.00952 x(2,2) >= 1
cut_clique_1(123,2):  0.00552 x(1,2) + 0.04420 x(3,2) >= 1
cut_clique_1(0123,3):  0.11111 x(1,3) + 0.11111 x(2,3) >= 1
cut_clique_1(123,3):  0.11111 x(1,3) + 0.11111 x(2,3) >= 1
cut_clique_1(013,3):  0.01370 x(1,3) + 0.12329 x(3,3) >= 1
cut_clique_1(012,3):  0.11111 x(1,3) + 0.11111 x(2,3) >= 1
cut_clique_1(023,3):  0.02222 x(2,3) + 0.11111 x(3,3) >= 1
cut_triangle_best((13)(21)(32),0):  y(2,1,0) + y(1,3,0) + y(3,2,0) <= 2
cut_basic_best(0123,0):  10 x(0,0) + x(1,0) + x(2,0) + 9 x(3,0) >= 129
cut_two_jobs(0,1,0):  10 x(0,0) + x(1,0) >= 10
cut_triangle_best((03)(20)(32),1):  y(2,0,1) + y(0,3,1) + y(3,2,1) <= 2
cut_basic_best(12,1):  5 x(1,1) + 7 x(2,1) >= 131
cut_two_jobs(1,2,1):  x(1,1) + 11 x(2,1) >= 151
cut_basic_best(0123,2):  6 x(0,2) + 8 x(1,2) + 3 x(2,2) + 10 x(3,2) >= 503
cut_two_jobs(0,1,2):  4 x(0,2) + 10 x(1,2) >= 214
cut_basic_plus_epsilon_best(013,2,2):  6 x(0,2) + 8 x(1,2) + 10 x(3,2) >= 404
cut_basic_best(0123,3):  x(0,3) + 7 x(1,3) + 9 x(2,3) + 3 x(3,3) >= 130
cut_two_jobs(1,2,3):  8 x(1,3) + 8 x(2,3) >= 72
cut_half_best(0,0123,3):  x(0,3) -7 y(1,0,3) -9 y(2,0,3) -3 y(3,0,3) >= 0
cut_late_job_best(013,3,0,1):  x(0,3) -7 y(1,0,3) -3 y(3,0,3) >= 1
cut_late_job_best(0123,3,0,2):  x(0,3) -7 y(1,0,3) -9 y(2,0,3) -3 y(3,0,3) >= 0
cut_triangle_best((03)(10)(21)(32),3):  y(1,0,3) + y(0,3,3) + y(2,1,3) + y(3,2,3) <= 3
Bounds
 0 <= C <= 94
 0 <= x(0,0) <= 70
 0 <= y(0,1,0) <= 1
 0 <= y(1,0,0) <= 1
 -74 <= v(0,1,0) <= 69
 -80 <= v(1,0,0) <= 63
 -940 <= u(0,1,0)
 -940 <= u(1,0,0)
 0 <= y(0,2,0) <= 1
 0 <= y(2,0,0) <= 1
 -94 <= v(0,2,0) <= 50
 -61 <= v(2,0,0) <= 83
 -940 <= u(0,2,0)
 -940 <= u(2,0,0)
 0 <= y(0,3,0) <= 1
 0 <= y(3,0,0) <= 1
 -84 <= v(0,3,0) <= 51
 -70 <= v(3,0,0) <= 65
 -940 <= u(0,3,0)
 -940 <= u(3,0,0)
 0 <= x(1,0) <= 73
 0 <= y(1,2,0) <= 1
 0 <= y(2,1,0) <= 1
 -94 <= v(1,2,0) <= 53
 -55 <= v(2,1,0) <= 92
 -940 <= u(1,2,0)
 -940 <= u(2,1,0)
 0 <= y(1,3,0) <= 1
 0 <= y(3,1,0) <= 1
 -84 <= v(1,3,0) <= 54
 -64 <= v(3,1,0) <= 74
 -940 <= u(1,3,0)
 -940 <= u(3,1,0)
 19 <= x(2,0) <= 93
 0 <= y(2,3,0) <= 1
 0 <= y(3,2,0) <= 1
 -65 <= v(2,3,0) <= 74
 -84 <= v(3,2,0) <= 55
 -940 <= u(2,3,0)
 -940 <= u(3,2,0)
 10 <= x(3,0) <= 75
 17 <= x(0,1) <= 87
 0 <= y(0,1,1) <= 1
 0 <= y(1,0,1) <= 1
 -69 <= v(0,1,1) <= 74
 -86 <= v(1,0,1) <= 57
 -940 <= u(0,1,1)
 -940 <= u(1,0,1)
 0 <= y(0,2,1) <= 1
 0 <= y(2,0,1) <= 1
 -76 <= v(0,2,1) <= 68
 -82 <= v(2,0,1) <= 62
 -940 <= u(0,2,1)
 -940 <= u(2,0,1)
 0 <= y(0,3,1) <= 1
 0 <= y(3,0,1) <= 1
 -55 <= v(0,3,1) <= 80
 -94 <= v(3,0,1) <= 41
 -940 <= u(0,3,1)
 -940 <= u(3,0,1)
 8 <= x(1,1) <= 81
 0 <= y(1,2,1) <= 1
 0 <= y(2,1,1) <= 1
 -85 <= v(1,2,1) <= 62
 -74 <= v(2,1,1) <= 73
 -940 <= u(1,2,1)
 -940 <= u(2,1,1)
 0 <= y(1,3,1) <= 1
 0 <= y(3,1,1) <= 1
 -64 <= v(1,3,1) <= 74
 -86 <= v(3,1,1) <= 52
 -940 <= u(1,3,1)
 -940 <= u(3,1,1)
 12 <= x(2,1) <= 86
 0 <= y(2,3,1) <= 1
 0 <= y(3,2,1) <= 1
 -60 <= v(2,3,1) <= 79
 -93 <= v(3,2,1) <= 46
 -940 <= u(2,3,1)
 -940 <= u(3,2,1)
 0 <= x(3,1) <= 65
 11 <= x(0,2) <= 81
 0 <= y(0,1,2) <= 1
 0 <= y(1,0,2) <= 1
 -83 <= v(0,1,2) <= 60
 -74 <= v(1,0,2) <= 69
 -940 <= u(0,1,2)
 -940 <= u(1,0,2)
 0 <= y(0,2,2) <= 1
 0 <= y(2,0,2) <= 1
 -75 <= v(0,2,2) <= 69
 -78 <= v(2,0,2) <= 66
 -940 <= u(0,2,2)
 -940 <= u(2,0,2)
 0 <= y(0,3,2) <= 1
 0 <= y(3,0,2) <= 1
 -83 <= v(0,3,2) <= 52
 -68 <= v(3,0,2) <= 67
 -940 <= u(0,3,2)
 -940 <= u(3,0,2)
 13 <= x(1,2) <= 86
 0 <= y(1,2,2) <= 1
 0 <= y(2,1,2) <= 1
 -73 <= v(1,2,2) <= 74
 -85 <= v(2,1,2) <= 62
 -940 <= u(1,2,2)
 -940 <= u(2,1,2)
 0 <= y(1,3,2) <= 1
 0 <= y(3,1,2) <= 1
 -81 <= v(1,3,2) <= 57
 -75 <= v(3,1,2) <= 63
 -940 <= u(1,3,2)
 -940 <= u(3,1,2)
 9 <= x(2,2) <= 83
 0 <= y(2,3,2) <= 1
 0 <= y(3,2,2) <= 1
 -85 <= v(2,3,2) <= 54
 -67 <= v(3,2,2) <= 72
 -940 <= u(2,3,2)
 -940 <= u(3,2,2)
 19 <= x(3,2) <= 84
 10 <= x(0,3) <= 80
 0 <= y(0,1,3) <= 1
 0 <= y(1,0,3) <= 1
 -71 <= v(0,1,3) <= 72
 -80 <= v(1,0,3) <= 63
 -940 <= u(0,1,3)
 -940 <= u(1,0,3)
 0 <= y(0,2,3) <= 1
 0 <= y(2,0,3) <= 1
 -73 <= v(0,2,3) <= 71
 -81 <= v(2,0,3) <= 63
 -940 <= u(0,2,3)
 -940 <= u(2,0,3)
 0 <= y(0,3,3) <= 1
 0 <= y(3,0,3) <= 1
 -65 <= v(0,3,3) <= 70
 -74 <= v(3,0,3) <= 61
 -940 <= u(0,3,3)
 -940 <= u(3,0,3)
 1 <= x(1,3) <= 74
 0 <= y(1,2,3) <= 1
 0 <= y(2,1,3) <= 1
 -82 <= v(1,2,3) <= 65
 -81 <= v(2,1,3) <= 66
 -940 <= u(1,2,3)
 -940 <= u(2,1,3)
 0 <= y(1,3,3) <= 1
 0 <= y(3,1,3) <= 1
 -74 <= v(1,3,3) <= 64
 -74 <= v(3,1,3) <= 64
 -940 <= u(1,3,3)
 -940 <= u(3,1,3)
 0 <= x(2,3) <= 74
 0 <= y(2,3,3) <= 1
 0 <= y(3,2,3) <= 1
 -75 <= v(2,3,3) <= 64
 -76 <= v(3,2,3) <= 63
 -940 <= u(2,3,3)
 -940 <= u(3,2,3)
 7 <= x(3,3) <= 72
End
